
Log started (V11.0.0) Sat Apr 19 17:00:56 2008

Tried aggregator 1 time.
Reduced MIP has 510 rows, 5001 columns, and 10010 nonzeros.
Presolve time =    0.03 sec.
Clique table members: 500.
MIP emphasis: balance optimality and feasibility.
MIP search method: dynamic search.
Parallel mode: none, using 1 thread.
Root relaxation solution time =    0.13 sec.

        Nodes                                         Cuts/
   Node  Left     Objective  IInf  Best Integer     Best Node    ItCnt     Gap

*     0+    0                        28080.0000      891.4551      563   96.83%
*     0+    0                          905.0000      891.4551      563    1.50%
      0     0      892.0000    18      905.0000      Fract: 8      611    1.44%
*     0+    0                          904.0000      892.0000      611    1.33%
      0     0      892.0000    21      904.0000     Covers: 1      619    1.33%
      0     0      892.0000    21      904.0000     Covers: 2      641    1.33%
*     0+    0                          901.0000      892.0000      641    1.00%
*     0+    0                          896.0000      892.0000      641    0.45%
*     0+    0                          895.0000      892.0000      641    0.34%

Repeating presolve.
Tried aggregator 1 time.
MIP Presolve eliminated 19 rows and 3113 columns.
Aggregator did 77 substitutions.
Reduced MIP has 414 rows, 1811 columns, and 3630 nonzeros.
Tried aggregator 1 time.
Represolve time =    0.08 sec.
Clique table members: 404.
MIP emphasis: balance optimality and feasibility.
MIP search method: dynamic search.
Parallel mode: none, using 1 thread.
Root relaxation solution time =    0.05 sec.

        Nodes                                         Cuts/
   Node  Left     Objective  IInf  Best Integer     Best Node    ItCnt     Gap

      0     0      892.0000    22      895.0000      892.0000      401    0.34%
      0     2      892.0000    22      895.0000      892.0000      401    0.34%
    100    84      893.0000    23      895.0000      892.0000     1695    0.34%
    200   170      893.0000    27      895.0000      892.0000     3387    0.34%
    300   252      893.0000    16      895.0000      892.0000     5462    0.34%
    400   315      894.0000    18      895.0000      892.0000     8793    0.34%
    500   380      893.0000     9      895.0000      892.0000    12231    0.34%
    600   406      893.0000    16      895.0000      892.0000    17592    0.34%
    700   409      894.0000    20      895.0000      892.0000    20992    0.34%
    800   422      893.0000    22      895.0000      892.0000    23391    0.34%
    900   430      893.0000    18      895.0000      892.0000    27238    0.34%
   1000   438      893.0000    19      895.0000      892.0000    30693    0.34%
Elapsed time =  15.22 sec. (tree size =  0.36 MB, solutions = 6)
   1100   451      892.0000    33      895.0000      892.0000    33749    0.34%
   1200   523      894.0000    23      895.0000      892.0000    38022    0.34%
   1300   586      893.0000    16      895.0000      892.0000    42190    0.34%
   1400   672      893.0000    30      895.0000      892.0000    46478    0.34%
   1500   760      893.0000    24      895.0000      892.0000    49095    0.34%
   1600   835    infeasible            895.0000      892.0000    54157    0.34%
   1700   913      894.0000    19      895.0000      892.0000    59278    0.34%
   1800  1000      893.0000    22      895.0000      892.0000    62780    0.34%
   1900  1072      893.0962    26      895.0000      892.0000    67678    0.34%
   2000  1148      893.0000    18      895.0000      892.0000    71476    0.34%
Elapsed time =  26.02 sec. (tree size =  1.00 MB, solutions = 6)
   2100  1237      894.0000    22      895.0000      892.0000    74263    0.34%
   2200  1311    infeasible            895.0000      892.0000    78180    0.34%
   2300  1402      893.0000    26      895.0000      892.0000    83047    0.34%
   2400  1488      894.0000    24      895.0000      892.0000    87531    0.34%
   2500  1579      893.0000    23      895.0000      892.0000    90625    0.34%
   2600  1653      893.0000    24      895.0000      892.0000    94337    0.34%
   2700  1747      893.0000    26      895.0000      892.0000    96883    0.34%
   2800  1821      893.0000    49      895.0000      892.0000   102382    0.34%
   2900  1912      893.0000    26      895.0000      892.0000   107046    0.34%
   3000  1985      893.0000    24      895.0000      892.0000   110317    0.34%
Elapsed time =  35.25 sec. (tree size =  1.75 MB, solutions = 6)
   3100  2071      893.0000    25      895.0000      892.0000   113378    0.34%
   3200  2165      893.0000    20      895.0000      892.0000   116994    0.34%
   3300  2255      893.0000    24      895.0000      892.0000   122976    0.34%
   3400  2310    infeasible            895.0000      892.0000   129315    0.34%
   3500  2388      894.0000    24      895.0000      892.0000   133733    0.34%
   3600  2476      893.0000    23      895.0000      892.0000   138054    0.34%
   3700  2549    infeasible            895.0000      892.0000   143489    0.34%
   3800  2645    infeasible            895.0000      892.0000   146570    0.34%
   3900  2733      893.0000    22      895.0000      892.0000   150488    0.34%
   4000  2810      893.0000    23      895.0000      892.0000   154632    0.34%
Elapsed time =  47.28 sec. (tree size =  2.51 MB, solutions = 6)
   4100  2902      893.0000    30      895.0000      892.0000   157405    0.34%
   4200  2996      893.0000    25      895.0000      892.0000   160789    0.34%
   4300  3086      894.0000    16      895.0000      892.0000   165429    0.34%
   4400  3140      893.0000    17      895.0000      892.0000   172350    0.34%
   4500  3231      894.0000    20      895.0000      892.0000   176021    0.34%
   4600  3315      894.0000    20      895.0000      892.0000   178904    0.34%
   4700  3405      894.0000    22      895.0000      892.0000   181552    0.34%
   4800  3497      894.0000    26      895.0000      892.0000   185172    0.34%
   4900  3591      893.0000    25      895.0000      892.0000   188513    0.34%
   5000  3662      893.0000    19      895.0000      892.0000   195353    0.34%
Elapsed time =  59.64 sec. (tree size =  3.26 MB, solutions = 6)
   5100  3755      893.0000    30      895.0000      892.0000   199286    0.34%
   5200  3854      894.0000    22      895.0000      892.0000   201505    0.34%
   5300  3949      893.0000    32      895.0000      892.0000   206016    0.34%
   5400  4041      893.0000    21      895.0000      892.0000   208929    0.34%
   5500  4126      894.0000    21      895.0000      892.0000   212415    0.34%
   5600  4213      893.0000    29      895.0000      892.0000   217973    0.34%
   5700  4294      893.0000    29      895.0000      892.0000   222417    0.34%
   5800  4393      894.0000    25      895.0000      892.0000   225313    0.34%
   5900  4487      894.0000    16      895.0000      892.0000   229435    0.34%
   6000  4582      893.0000    29      895.0000      892.0000   232276    0.34%
Elapsed time =  69.11 sec. (tree size =  4.13 MB, solutions = 6)
   6100  4665      894.0000    24      895.0000      892.0000   237294    0.34%
   6200  4755      894.0000    23      895.0000      892.0000   239833    0.34%
   6300  4850      893.0000    16      895.0000      892.0000   242869    0.34%
   6400  4936      894.0000    18      895.0000      892.0000   245910    0.34%
   6500  5019      893.0000    30      895.0000      892.0000   249523    0.34%
*  6584+ 3070                          894.0000      892.0000   252450    0.22%
   6600  3088      893.0000    22      894.0000      892.0000   252613    0.22%
   6700  3168      893.0000    22      894.0000      892.0000   259564    0.22%
   6800  3256      893.0000    22      894.0000      892.0000   263654    0.22%
   6900  3351      893.0000    29      894.0000      892.0000   266263    0.22%
   7000  3438      893.0000    20      894.0000      892.0000   269810    0.22%
Elapsed time =  80.05 sec. (tree size =  3.02 MB, solutions = 7)
   7100  3534      893.0000    25      894.0000      892.0000   272849    0.22%
   7200  3622      893.0000    22      894.0000      892.0000   277843    0.22%
   7300  3717      893.0000    31      894.0000      892.0000   282424    0.22%
   7400  3805      893.0000    25      894.0000      892.0000   286483    0.22%
   7500  3898      893.0000    27      894.0000      892.0000   289890    0.22%
   7600  3993      893.0000    39      894.0000      892.0000   292772    0.22%
   7700  4081      893.0000    28      894.0000      892.0000   296388    0.22%
   7800  4162      893.0000    36      894.0000      892.0000   300992    0.22%
   7900  4255      893.0000    30      894.0000      892.0000   304599    0.22%
   8000  4341      893.0000    20      894.0000      892.0000   308325    0.22%
Elapsed time =  90.16 sec. (tree size =  3.88 MB, solutions = 7)
   8100  4436      893.0000    33      894.0000      892.0000   311489    0.22%
   8200  4527      893.0000    26      894.0000      892.0000   315266    0.22%
   8300  4621    infeasible            894.0000      892.0000   317252    0.22%
   8400  4707      893.0000    21      894.0000      892.0000   321238    0.22%
   8500  4800      893.0000    28      894.0000      892.0000   327898    0.22%
   8600  4893      893.0000    28      894.0000      892.0000   331949    0.22%
   8700  4974      893.0000    22      894.0000      892.0000   340410    0.22%
   8800  5058      893.0000    31      894.0000      892.0000   345885    0.22%
   8900  5153      893.0000    59      894.0000      892.0000   349566    0.22%
   9000  5244      893.0000    59      894.0000      892.0000   356698    0.22%
Elapsed time = 102.33 sec. (tree size =  4.74 MB, solutions = 7)
   9100  5337      893.0000    47      894.0000      892.0000   361666    0.22%
   9200  5426      893.0000    17      894.0000      892.0000   365210    0.22%
   9300  5519      893.0000    28      894.0000      892.0000   370054    0.22%
   9400  5601      893.0000    23      894.0000      892.0000   373236    0.22%
   9500  5664      893.0000    41      894.0000      892.0000   380057    0.22%
   9600  5753      893.0000    26      894.0000      892.0000   385546    0.22%
   9700  5848      893.0000    33      894.0000      892.0000   388604    0.22%
   9800  5938      893.0000    30      894.0000      892.0000   394114    0.22%
   9900  6031      893.0000    31      894.0000      892.0000   398559    0.22%
  10000  6122      893.0000    42      894.0000      892.0000   403841    0.22%
Elapsed time = 114.19 sec. (tree size =  5.64 MB, solutions = 7)
  10100  6202      893.0000    27      894.0000      892.0000   409689    0.22%
  10200  6293      893.0000    32      894.0000      892.0000   417356    0.22%
  10300  6386      893.0000    37      894.0000      892.0000   423804    0.22%
  10400  6475      893.0000    38      894.0000      892.0000   429377    0.22%
  10500  6564      893.0000    26      894.0000      892.0000   433781    0.22%
  10600  6659      893.0000    37      894.0000      892.0000   437881    0.22%
  10700  6745      893.0000    29      894.0000      892.0000   444321    0.22%
  10800  6836      893.0000    42      894.0000      892.0000   451140    0.22%
  10900  6931      893.0000    40      894.0000      892.0000   455286    0.22%
  11000  7024      893.0000     6      894.0000      892.0000   459883    0.22%
Elapsed time = 129.22 sec. (tree size =  6.52 MB, solutions = 7)
  11100  7117      893.0000    15      894.0000      892.0000   462996    0.22%
  11200  7210      893.0000    42      894.0000      892.0000   465312    0.22%
  11300  7305      892.1918    75      894.0000      892.0000   469247    0.22%
  11400  7399      893.0000    30      894.0000      892.0000   475939    0.22%
  11500  7492      893.0000    43      894.0000      892.0000   481122    0.22%
  11600  7582      893.0000    30      894.0000      892.0000   487147    0.22%
  11700  7680      893.0000    35      894.0000      892.0000   489499    0.22%
  11800  7765      893.0000    25      894.0000      892.0000   493296    0.22%
  11900  7856      893.0000    29      894.0000      892.0000   497333    0.22%
  12000  7949      893.0000    43      894.0000      892.0000   502942    0.22%
Elapsed time = 143.89 sec. (tree size =  7.41 MB, solutions = 7)
  12100  8031      893.0000    25      894.0000      892.0000   509170    0.22%
  12200  8124      893.0000    27      894.0000      892.0000   512432    0.22%
  12300  8219      893.0000    19      894.0000      892.0000   515668    0.22%
  12400  8312      893.0000    29      894.0000      892.0000   521695    0.22%
  12500  8404      893.0000    26      894.0000      892.0000   526460    0.22%
  12600  8499      893.0000    28      894.0000      892.0000   530382    0.22%
  12700  8590      893.0000    41      894.0000      892.0000   535068    0.22%
  12800  8679      893.0000    26      894.0000      892.0000   539760    0.22%
  12900  8779      893.0000    40      894.0000      892.0000   542379    0.22%
  13000  8870      893.0000    28      894.0000      892.0000   546599    0.22%
Elapsed time = 157.33 sec. (tree size =  8.43 MB, solutions = 7)
  13100  8963      893.0000    29      894.0000      892.0000   550632    0.22%
  13200  9056      893.0000    26      894.0000      892.0000   554481    0.22%
  13300  9147      893.0000    25      894.0000      892.0000   559387    0.22%
  13400  9242      893.0000    18      894.0000      892.0000   562272    0.22%
  13500  9329      893.0000    30      894.0000      892.0000   565232    0.22%
  13600  9424      893.0000    18      894.0000      892.0000   569654    0.22%
  13700  9519      893.0000    40      894.0000      892.0000   574796    0.22%
  13800  9606      893.0000    20      894.0000      892.0000   579349    0.22%
  13900  9690    infeasible            894.0000      892.0000   583831    0.22%
  14000  9783      893.0000    25      894.0000      892.0000   587119    0.22%
Elapsed time = 169.11 sec. (tree size =  9.31 MB, solutions = 7)
  14100  9876      893.0000    39      894.0000      892.0000   591095    0.22%
  14200  9974      893.0000    36      894.0000      892.0000   595458    0.22%
  14300 10069      893.0000    36      894.0000      892.0000   599458    0.22%
  14400 10162      893.0000    20      894.0000      892.0000   602787    0.22%
  14500 10257      893.0000    29      894.0000      892.0000   606668    0.22%
  14600 10348      893.0000    14      894.0000      892.0000   610529    0.22%
  14700 10443      893.0000    27      894.0000      892.0000   614075    0.22%
  14800 10536      893.0000    23      894.0000      892.0000   617330    0.22%
  14900 10617      893.0000    28      894.0000      892.0000   622297    0.22%
  15000 10708      893.0000    21      894.0000      892.0000   627270    0.22%
Elapsed time = 183.14 sec. (tree size = 10.18 MB, solutions = 7)
  15100 10803      893.0000    36      894.0000      892.0000   632424    0.22%
  15200 10894      893.0000    29      894.0000      892.0000   638218    0.22%
  15300 10982      893.0000    27      894.0000      892.0000   643647    0.22%
  15400 11077      893.0000    32      894.0000      892.0000   647851    0.22%
  15500 11168      893.0000    35      894.0000      892.0000   653436    0.22%
  15600 11261      893.0000    55      894.0000      892.0000   661207    0.22%
  15700 11354      893.0000    30      894.0000      892.0000   666454    0.22%
  15800 11445      893.0000    37      894.0000      892.0000   671885    0.22%
  15900 11532    infeasible            894.0000      892.0000   679065    0.22%
  16000 11620      893.0000    39      894.0000      892.0000   684169    0.22%
Elapsed time = 201.75 sec. (tree size = 11.07 MB, solutions = 7)
  16100 11713      893.0000    21      894.0000      893.0000   688581    0.11%
  16200 11803      893.0000    23      894.0000      893.0000   692522    0.11%
  16300 11881      893.0000    55      894.0000      893.0000   700781    0.11%
  16400 11973      893.0000    41      894.0000      893.0000   709042    0.11%
  16500 12059      893.0000    41      894.0000      893.0000   717579    0.11%
  16600 12151      893.0000    36      894.0000      893.0000   722958    0.11%
  16700 12235      893.0000    33      894.0000      893.0000   730463    0.11%
  16800 12331      893.0000    29      894.0000      893.0000   734271    0.11%
  16900 12423      893.0000    30      894.0000      893.0000   738435    0.11%
  17000 12513      893.0000    28      894.0000      893.0000   744125    0.11%
Elapsed time = 222.16 sec. (tree size = 11.91 MB, solutions = 7)
  17100 12595      893.0000    55      894.0000      893.0000   754439    0.11%
  17200 12673      893.0000    30      894.0000      893.0000   762145    0.11%
  17300 12769      893.0000    32      894.0000      893.0000   768858    0.11%
  17400 12855      893.0000    13      894.0000      893.0000   774461    0.11%
  17500 12945      893.0000    28      894.0000      893.0000   779149    0.11%
  17600 13023      893.0000    35      894.0000      893.0000   786658    0.11%
  17700 13099      893.0000    40      894.0000      893.0000   792968    0.11%
  17800 13195      893.0000    56      894.0000      893.0000   797342    0.11%
  17900 13285      893.0000    54      894.0000      893.0000   802580    0.11%
  18000 13365      893.0000    45      894.0000      893.0000   809592    0.11%
Elapsed time = 244.83 sec. (tree size = 12.71 MB, solutions = 7)
  18100 13453      893.0000    30      894.0000      893.0000   820425    0.11%
  18200 13529      893.0000    30      894.0000      893.0000   829205    0.11%
  18300 13621      893.0000    38      894.0000      893.0000   833267    0.11%
  18400 13713      893.0000    30      894.0000      893.0000   839097    0.11%
  18500 13801      893.0000    45      894.0000      893.0000   847454    0.11%
  18600 13893      893.0000    28      894.0000      893.0000   852465    0.11%
  18700 13991      893.0000    24      894.0000      893.0000   856773    0.11%
  18800 14077      893.0000    19      894.0000      893.0000   863258    0.11%
  18900 14171      893.0000    40      894.0000      893.0000   867903    0.11%
  19000 14259      893.0000    19      894.0000      893.0000   875872    0.11%
Elapsed time = 273.00 sec. (tree size = 13.52 MB, solutions = 7)
  19100 14353      893.0000    34      894.0000      893.0000   880297    0.11%
  19200 14441    infeasible            894.0000      893.0000   884874    0.11%
  19300 14529      893.0000    35      894.0000      893.0000   891848    0.11%
  19400 14623      893.0000    33      894.0000      893.0000   895424    0.11%
  19500 14717      893.0000    49      894.0000      893.0000   899635    0.11%
  19600 14802      893.0000    49      894.0000      893.0000   909418    0.11%
  19700 14896      893.0000    26      894.0000      893.0000   913261    0.11%
  19800 14982      893.0000    24      894.0000      893.0000   920558    0.11%
  19900 15076      893.0000    34      894.0000      893.0000   925564    0.11%
  20000 15166      893.0000    34      894.0000      893.0000   934711    0.11%
Elapsed time = 298.11 sec. (tree size = 14.36 MB, solutions = 7)
  20100 15260      893.0000    36      894.0000      893.0000   941372    0.11%
  20200 15346      893.0000    34      894.0000      893.0000   951120    0.11%
  20300 15434      893.0000    46      894.0000      893.0000   962684    0.11%
  20400 15518      893.0000    36      894.0000      893.0000   970419    0.11%
  20500 15606      893.0000    27      894.0000      893.0000   975375    0.11%
  20600 15690      893.0000    39      894.0000      893.0000   979699    0.11%
  20700 15786      893.0000    55      894.0000      893.0000   985208    0.11%
* 20734+    1                          893.0000      893.0000   988217    0.00%

Cover cuts applied:  999
Mixed integer rounding cuts applied:  9
Zero-half cuts applied:  1
Gomory fractional cuts applied:  13

Solution pool: 8 solutions saved.

MIP - Integer optimal solution:  Objective = 8.9300000000e+002
Solution time =  318.25 sec.  Iterations = 988217  Nodes = 20734


Incumbent solution
Variable Name           Solution Value
Cmax                        893.000000
X_1_9                         1.000000
X_2_2                         1.000000
X_3_1                         1.000000
X_4_3                         1.000000
X_5_4                         1.000000
X_6_4                         1.000000
X_7_1                         1.000000
X_8_8                         1.000000
X_9_10                        1.000000
X_10_2                        1.000000
X_11_10                       1.000000
X_12_2                        1.000000
X_13_6                        1.000000
X_14_2                        1.000000
X_15_7                        1.000000
X_16_2                        1.000000
X_17_10                       1.000000
X_18_2                        1.000000
X_19_5                        1.000000
X_20_8                        1.000000
X_21_10                       1.000000
X_22_9                        1.000000
X_23_4                        1.000000
X_24_5                        1.000000
X_25_5                        1.000000
X_26_8                        1.000000
X_27_10                       1.000000
X_28_5                        1.000000
X_29_1                        1.000000
X_30_4                        1.000000
X_31_5                        1.000000
X_32_2                        1.000000
X_33_7                        1.000000
X_34_2                        1.000000
X_35_6                        1.000000
X_36_5                        1.000000
X_37_6                        1.000000
X_38_3                        1.000000
X_39_9                        1.000000
X_40_10                       1.000000
X_41_4                        1.000000
X_42_5                        1.000000
X_43_9                        1.000000
X_44_5                        1.000000
X_45_7                        1.000000
X_46_9                        1.000000
X_47_8                        1.000000
X_48_5                        1.000000
X_49_9                        1.000000
X_50_7                        1.000000
X_51_8                        1.000000
X_52_2                        1.000000
X_53_9                        1.000000
X_54_9                        1.000000
X_55_5                        1.000000
X_56_1                        1.000000
X_57_1                        1.000000
X_58_7                        1.000000
X_59_8                        1.000000
X_60_10                       1.000000
X_61_3                        1.000000
X_62_10                       1.000000
X_63_9                        1.000000
X_64_8                        1.000000
X_65_9                        1.000000
X_66_6                        1.000000
X_67_7                        1.000000
X_68_9                        1.000000
X_69_3                        1.000000
X_70_5                        1.000000
X_71_9                        1.000000
X_72_5                        1.000000
X_73_9                        1.000000
X_74_5                        1.000000
X_75_8                        1.000000
X_76_1                        1.000000
X_77_9                        1.000000
X_78_8                        1.000000
X_79_10                       1.000000
X_80_8                        1.000000
X_81_9                        1.000000
X_82_7                        1.000000
X_83_6                        1.000000
X_84_10                       1.000000
X_85_9                        1.000000
X_86_5                        1.000000
X_87_3                        1.000000
X_88_6                        1.000000
X_89_9                        1.000000
X_90_3                        1.000000
X_91_4                        1.000000
X_92_1                        1.000000
X_93_5                        1.000000
X_94_10                       1.000000
X_95_6                        1.000000
X_96_1                        1.000000
X_97_5                        1.000000
X_98_4                        1.000000
X_99_10                       1.000000
X_100_9                       1.000000
X_101_3                       1.000000
X_102_10                      1.000000
X_103_8                       1.000000
X_104_6                       1.000000
X_105_1                       1.000000
X_106_2                       1.000000
X_107_2                       1.000000
X_108_2                       1.000000
X_109_9                       1.000000
X_110_2                       1.000000
X_111_7                       1.000000
X_112_6                       1.000000
X_113_5                       1.000000
X_114_2                       1.000000
X_115_6                       1.000000
X_116_10                      1.000000
X_117_5                       1.000000
X_118_7                       1.000000
X_119_9                       1.000000
X_120_8                       1.000000
X_121_8                       1.000000
X_122_8                       1.000000
X_123_1                       1.000000
X_124_3                       1.000000
X_125_6                       1.000000
X_126_5                       1.000000
X_127_3                       1.000000
X_128_4                       1.000000
X_129_7                       1.000000
X_130_5                       1.000000
X_131_1                       1.000000
X_132_3                       1.000000
X_133_7                       1.000000
X_134_6                       1.000000
X_135_1                       1.000000
X_136_3                       1.000000
X_137_3                       1.000000
X_138_4                       1.000000
X_139_10                      1.000000
X_140_8                       1.000000
X_141_7                       1.000000
X_142_4                       1.000000
X_143_3                       1.000000
X_144_9                       1.000000
X_145_1                       1.000000
X_146_5                       1.000000
X_147_5                       1.000000
X_148_1                       1.000000
X_149_1                       1.000000
X_150_6                       1.000000
X_151_10                      1.000000
X_152_10                      1.000000
X_153_10                      1.000000
X_154_4                       1.000000
X_155_4                       1.000000
X_156_1                       1.000000
X_157_8                       1.000000
X_158_8                       1.000000
X_159_8                       1.000000
X_160_9                       1.000000
X_161_7                       1.000000
X_162_4                       1.000000
X_163_10                      1.000000
X_164_1                       1.000000
X_165_5                       1.000000
X_166_5                       1.000000
X_167_10                      1.000000
X_168_1                       1.000000
X_169_5                       1.000000
X_170_7                       1.000000
X_171_5                       1.000000
X_172_6                       1.000000
X_173_2                       1.000000
X_174_7                       1.000000
X_175_6                       1.000000
X_176_7                       1.000000
X_177_3                       1.000000
X_178_5                       1.000000
X_179_1                       1.000000
X_180_8                       1.000000
X_181_7                       1.000000
X_182_5                       1.000000
X_183_8                       1.000000
X_184_1                       1.000000
X_185_3                       1.000000
X_186_10                      1.000000
X_187_8                       1.000000
X_188_5                       1.000000
X_189_4                       1.000000
X_190_5                       1.000000
X_191_5                       1.000000
X_192_9                       1.000000
X_193_4                       1.000000
X_194_2                       1.000000
X_195_8                       1.000000
X_196_4                       1.000000
X_197_1                       1.000000
X_198_2                       1.000000
X_199_4                       1.000000
X_200_10                      1.000000
X_201_1                       1.000000
X_202_5                       1.000000
X_203_6                       1.000000
X_204_7                       1.000000
X_205_3                       1.000000
X_206_7                       1.000000
X_207_3                       1.000000
X_208_10                      1.000000
X_209_10                      1.000000
X_210_10                      1.000000
X_211_2                       1.000000
X_212_7                       1.000000
X_213_8                       1.000000
X_214_8                       1.000000
X_215_10                      1.000000
X_216_4                       1.000000
X_217_9                       1.000000
X_218_10                      1.000000
X_219_1                       1.000000
X_220_2                       1.000000
X_221_3                       1.000000
X_222_6                       1.000000
X_223_5                       1.000000
X_224_4                       1.000000
X_225_7                       1.000000
X_226_7                       1.000000
X_227_5                       1.000000
X_228_1                       1.000000
X_229_10                      1.000000
X_230_8                       1.000000
X_231_4                       1.000000
X_232_6                       1.000000
X_233_9                       1.000000
X_234_7                       1.000000
X_235_7                       1.000000
X_236_8                       1.000000
X_237_7                       1.000000
X_238_4                       1.000000
X_239_4                       1.000000
X_240_7                       1.000000
X_241_5                       1.000000
X_242_8                       1.000000
X_243_1                       1.000000
X_244_1                       1.000000
X_245_7                       1.000000
X_246_2                       1.000000
X_247_1                       1.000000
X_248_3                       1.000000
X_249_4                       1.000000
X_250_4                       1.000000
X_251_2                       1.000000
X_252_1                       1.000000
X_253_9                       1.000000
X_254_6                       1.000000
X_255_5                       1.000000
X_256_9                       1.000000
X_257_2                       1.000000
X_258_6                       1.000000
X_259_4                       1.000000
X_260_5                       1.000000
X_261_9                       1.000000
X_262_6                       1.000000
X_263_6                       1.000000
X_264_7                       1.000000
X_265_6                       1.000000
X_266_3                       1.000000
X_267_10                      1.000000
X_268_6                       1.000000
X_269_4                       1.000000
X_270_2                       1.000000
X_271_2                       1.000000
X_272_2                       1.000000
X_273_3                       1.000000
X_274_9                       1.000000
X_275_4                       1.000000
X_276_8                       1.000000
X_277_8                       1.000000
X_278_7                       1.000000
X_279_10                      1.000000
X_280_7                       1.000000
X_281_9                       1.000000
X_282_1                       1.000000
X_283_6                       1.000000
X_284_4                       1.000000
X_285_10                      1.000000
X_286_1                       1.000000
X_287_8                       1.000000
X_288_7                       1.000000
X_289_5                       1.000000
X_290_8                       1.000000
X_291_10                      1.000000
X_292_7                       1.000000
X_293_3                       1.000000
X_294_8                       1.000000
X_295_3                       1.000000
X_296_9                       1.000000
X_297_9                       1.000000
X_298_5                       1.000000
X_299_6                       1.000000
X_300_7                       1.000000
X_301_4                       1.000000
X_302_4                       1.000000
X_303_8                       1.000000
X_304_5                       1.000000
X_305_6                       1.000000
X_306_8                       1.000000
X_307_2                       1.000000
X_308_10                      1.000000
X_309_8                       1.000000
X_310_5                       1.000000
X_311_1                       1.000000
X_312_7                       1.000000
X_313_4                       1.000000
X_314_4                       1.000000
X_315_5                       1.000000
X_316_4                       1.000000
X_317_3                       1.000000
X_318_5                       1.000000
X_319_8                       1.000000
X_320_6                       1.000000
X_321_8                       1.000000
X_322_8                       1.000000
X_323_9                       1.000000
X_324_1                       1.000000
X_325_4                       1.000000
X_326_7                       1.000000
X_327_7                       1.000000
X_328_7                       1.000000
X_329_3                       1.000000
X_330_9                       1.000000
X_331_4                       1.000000
X_332_3                       1.000000
X_333_2                       1.000000
X_334_10                      1.000000
X_335_6                       1.000000
X_336_6                       1.000000
X_337_8                       1.000000
X_338_1                       1.000000
X_339_3                       1.000000
X_340_2                       1.000000
X_341_6                       1.000000
X_342_8                       1.000000
X_343_3                       1.000000
X_344_7                       1.000000
X_345_2                       1.000000
X_346_6                       1.000000
X_347_10                      1.000000
X_348_9                       1.000000
X_349_9                       1.000000
X_350_10                      1.000000
X_351_3                       1.000000
X_352_6                       1.000000
X_353_8                       1.000000
X_354_7                       1.000000
X_355_9                       1.000000
X_356_9                       1.000000
X_357_2                       1.000000
X_358_9                       1.000000
X_359_6                       1.000000
X_360_2                       1.000000
X_361_8                       1.000000
X_362_8                       1.000000
X_363_3                       1.000000
X_364_8                       1.000000
X_365_5                       1.000000
X_366_7                       1.000000
X_367_2                       1.000000
X_368_9                       1.000000
X_369_7                       1.000000
X_370_7                       1.000000
X_371_6                       1.000000
X_372_10                      1.000000
X_373_10                      1.000000
X_374_2                       1.000000
X_375_9                       1.000000
X_376_2                       1.000000
X_377_3                       1.000000
X_378_10                      1.000000
X_379_3                       1.000000
X_380_10                      1.000000
X_381_6                       1.000000
X_382_8                       1.000000
X_383_7                       1.000000
X_384_2                       1.000000
X_385_10                      1.000000
X_386_3                       1.000000
X_387_6                       1.000000
X_388_4                       1.000000
X_389_8                       1.000000
X_390_7                       1.000000
X_391_9                       1.000000
X_392_3                       1.000000
X_393_4                       1.000000
X_394_5                       1.000000
X_395_7                       1.000000
X_396_1                       1.000000
X_397_5                       1.000000
X_398_4                       1.000000
X_399_3                       1.000000
X_400_3                       1.000000
X_401_5                       1.000000
X_402_4                       1.000000
X_403_5                       1.000000
X_404_3                       1.000000
X_405_6                       1.000000
X_406_4                       1.000000
X_407_3                       1.000000
X_408_8                       1.000000
X_409_7                       1.000000
X_410_7                       1.000000
X_411_4                       1.000000
X_412_9                       1.000000
X_413_2                       1.000000
X_414_8                       1.000000
X_415_1                       1.000000
X_416_10                      1.000000
X_417_7                       1.000000
X_418_10                      1.000000
X_419_1                       1.000000
X_420_6                       1.000000
X_421_2                       1.000000
X_422_4                       1.000000
X_423_2                       1.000000
X_424_1                       1.000000
X_425_7                       1.000000
X_426_3                       1.000000
X_427_8                       1.000000
X_428_7                       1.000000
X_429_2                       1.000000
X_430_2                       1.000000
X_431_1                       1.000000
X_432_1                       1.000000
X_433_10                      1.000000
X_434_4                       1.000000
X_435_6                       1.000000
X_436_2                       1.000000
X_437_2                       1.000000
X_438_6                       1.000000
X_439_3                       1.000000
X_440_8                       1.000000
X_441_9                       1.000000
X_442_5                       1.000000
X_443_1                       1.000000
X_444_3                       1.000000
X_445_4                       1.000000
X_446_2                       1.000000
X_447_5                       1.000000
X_448_2                       1.000000
X_449_3                       1.000000
X_450_10                      1.000000
X_451_5                       1.000000
X_452_2                       1.000000
X_453_10                      1.000000
X_454_6                       1.000000
X_455_10                      1.000000
X_456_4                       1.000000
X_457_1                       1.000000
X_458_3                       1.000000
X_459_10                      1.000000
X_460_3                       1.000000
X_461_9                       1.000000
X_462_9                       1.000000
X_463_10                      1.000000
X_464_4                       1.000000
X_465_2                       1.000000
X_466_10                      1.000000
X_467_2                       1.000000
X_468_7                       1.000000
X_469_3                       1.000000
X_470_6                       1.000000
X_471_8                       1.000000
X_472_8                       1.000000
X_473_3                       1.000000
X_474_8                       1.000000
X_475_5                       1.000000
X_476_4                       1.000000
X_477_10                      1.000000
X_478_7                       1.000000
X_479_5                       1.000000
X_480_1                       1.000000
X_481_6                       1.000000
X_482_5                       1.000000
X_483_2                       1.000000
X_484_4                       1.000000
X_485_9                       1.000000
X_486_8                       1.000000
X_487_9                       1.000000
X_488_3                       1.000000
X_489_9                       1.000000
X_490_10                      1.000000
X_491_9                       1.000000
X_492_2                       1.000000
X_493_1                       1.000000
X_494_6                       1.000000
X_495_4                       1.000000
X_496_8                       1.000000
X_497_9                       1.000000
X_498_1                       1.000000
X_499_7                       1.000000
X_500_2                       1.000000
All other variables in the range 1-5001 are 0.
